120	32	4	71	
10	10	10	10

0	0	0	0	0	0	8	1	24	25	26	27	28	29	30
1	1	1	1	0	5	2	23	2
2	4	6	3	0	1	2	22	3
3	0	2	3	1	5	3	21	20	4
4	3	5	0	6	3	2	19	5
5	3	3	0	2	7	2	18	6
6	8	0	5	3	10	1	7
7	4	0	5	5	8	1	8
8	2	4	2	0	3	2	17	9
9	3	0	6	4	8	2	16	10
10	4	4	6	0	1	1	11
11	4	6	3	0	1	1	12
12	0	3	4	6	8	1	13
13	0	8	7	1	2	1	14
14	6	3	3	0	8	1	15
15	2	0	7	3	1	1	31
16	5	4	0	5	1	1	31
17	5	3	3	0	8	1	31
18	2	6	0	8	2	1	31
19	0	1	7	6	2	1	31
20	0	7	3	5	2	1	31
21	0	6	3	2	5	1	31
22	8	3	4	0	1	1	31
23	0	5	1	4	1	1	31
24	0	6	6	4	2	1	31
25	3	2	0	2	4	1	31
26	0	4	4	6	3	1	31
27	0	3	3	3	3	1	31
28	6	4	3	0	5	1	31
29	2	3	0	5	2	1	31
30	5	2	0	3	8	1	31
31	0	0	0	0	0	0
